n=30;
demand=2;
horizon=30;
est=[1,13,24,22,22,5,5,14,0,6,4,13,23,0,4,10,6,17,23,15,14,24,21,14,1,26,20,23,10,3];
processing_time=[2,12,1,2,8,23,24,3,17,2,20,10,1,4,21,4,17,12,5,15,12,6,3,12,1,2,7,1,4,18];
lct=[10,28,28,25,30,28,30,21,26,14,27,25,24,24,30,18,27,30,28,30,27,30,30,28,18,30,27,25,22,30];
